num_features = 18;
num_usage_limits = 5;
num_plans = 4;
num_addons = 0;

features = ["posts","pages","workspaces","selfService","realTimeSupport","personalizedOnboarding","roleBasedAccessControl","unlimitedStorage","auditLogging","advancedSecurity","postPreviews","multipleViewOptions","atAGlance","collaborationInContext","customerService","oneClickApprovals","centralizedPublishing","mediaLibrary"];
usage_limits = ["usersLimit","postsLimit","pagesLimit","workspacesLimit","storageCapacity"];
plans = ["FREE","STARTER","PREMIUM","ENTERPRISE"];
addons = [];

plans_prices = [0,39,99,990];
addons_prices = [];

linked_features = array2d(USAGE_LIMITS, FEATURES, [
    % usersLimit
    0,0,0,0,0,0,0,0,0,0,0,0,0,0,0,0,0,0,
    % postsLimit
    1,0,0,0,0,0,0,0,0,0,0,0,0,0,0,0,0,0,
    % pagesLimit
    0,1,0,0,0,0,0,0,0,0,0,0,0,0,0,0,0,0,
    % workspacesLimit
    0,0,1,0,0,0,0,0,0,0,0,0,0,0,0,0,0,0,
    % storageCapacity
    0,0,0,0,0,0,0,1,0,0,0,0,0,0,0,0,0,0
]);

plans_features = array2d(PLANS, FEATURES, [
    % FREE
    1,1,1,1,0,0,0,0,0,0,1,1,1,1,1,1,1,1,
    % STARTER
    1,1,1,1,0,0,0,0,0,0,1,1,1,1,1,1,1,1,
    % PREMIUM
    1,1,1,1,0,0,0,0,0,0,1,1,1,1,1,1,1,1,
    % ENTERPRISE
    1,1,1,1,1,1,1,1,1,1,1,1,1,1,1,1,1,1
]);
plans_usage_limits = array2d(PLANS, USAGE_LIMITS, [
    % FREE
    100000000,50,100000000,100000000,100000000,
    % STARTER
    3,100000000,10,1,100000000,
    % PREMIUM
    7,100000000,100000000,5,100000000,
    % ENTERPRISE
    100000000,100000000,100000000,100000000,100000000
]);

addons_features = array2d(ADDONS, FEATURES, [
]);
addons_usage_limits = array2d(ADDONS, USAGE_LIMITS, [
]);
addons_usage_limits_extensions = array2d(ADDONS, USAGE_LIMITS, [
]);
addons_available_for = array2d(ADDONS, PLANS, [
]);
addons_depends_on = array2d(ADDONS, ADDONS, [
]);
